results/x-long/X-n106-k14.vrp_seed-5.out
26364	1365
