results/x-long/X-n106-k14.vrp_seed-5.vrp.sol
Route #1: 96 45 100 51 60 76 44 5
Route #2: 22 33
Route #3: 62 26 90 24 102 92 52
Route #4: 74 21 85 13 40 31 63 57
Route #5: 53 103 101 28 93 97 43 87
Route #6: 15 66 46 79 37 27 19 78
Route #7: 7 75 84 9 12 104 1
Route #8: 54 77 83 2 17 69 105 64 94 82
Route #9: 56 20 16 10 41 18 86
Route #10: 67 48 8 36 91 88 58 14
Route #11: 29 72 34 11 99 49 71
Route #12: 39 50 81 6 70 4 98 55
Route #13: 68 95 38 65 80 61 47 25
Route #14: 35 73 32 3 23 42 30 89 59
Cost 26364.000000